n_res = 4;
rcap = [34, 31, 41, 32];
rtype = [1, 1, 2, 2];
n_tasks = 12;
modes = [ {1, 2, 3}, {4, 5, 6}, {7, 8, 9}, {10, 11, 12}, {13, 14, 15}, {16, 17, 18}, {19, 20, 21}, {22, 23, 24}, {25, 26, 27}, {28, 29, 30}, {31, 32, 33}, {34, 35, 36} ];
succ = [ {5, 8, 11}, {4, 5, 6}, {4, 6, 7}, {10, 12}, {9, 12}, {8, 11, 12}, {8, 11}, {9}, {10}, {}, {}, {} ];
n_opt = 36;
dur = [5, 6, 6, 4, 5, 10, 4, 5, 6, 5, 7, 8, 1, 7, 10, 2, 5, 10, 5, 6, 9, 9, 10, 10, 3, 5, 8, 10, 10, 10, 1, 2, 9, 8, 9, 10];
rreq = [| 10,  4,  5,  9,  6,  6,  2,  2,  1,  9,  9,  6,  7,  6,  5,  8,  8,  5,  7,  4,  2,  9,  8,  8,  7,  7,  7,  6,  5,  4,  8,  7,  7,  5,  3,  1
        |  5,  2,  2,  8,  7,  6, 10, 10, 10,  7,  6,  6, 10,  9,  9,  7,  7,  7,  7,  5,  2,  9,  5,  4,  6,  4,  3,  2,  1,  2,  1,  1,  1,  7,  6,  3
        |  7,  0,  1,  0,  4,  0,  0,  5,  5,  0,  0,  6,  0,  7,  6,  8,  0,  0,  0,  5,  0,  0,  3,  0,  4,  4,  3,  0,  8,  6,  8,  5,  0,  9,  6,  4
        |  0,  9,  0,  3,  0,  3,  9,  0,  0,  9,  6,  0,  4,  0,  0,  0,  3,  3,  6,  0,  6,  9,  0,  7,  0,  0,  0,  6,  0,  0,  0,  0,  5,  0,  0,  0 |];
